
Gurobi 13.0.2 (win64) logging started Thu Jul 23 06:57:02 2026

Set parameter LogFile to value "E:\codes\ExactEBRP\results\gf_cplex_equivalent_gurobi_replica_round28\runs\stage2__tight_T_seed5102__c3_replica__300s\external\native_logs\R.0_lp.gurobi.log"
Gurobi Optimizer version 13.0.2 build v13.0.2rc1 (win64 - Windows 10.0 (19045.2))

CPU model: 12th Gen Intel(R) Core(TM) i7-12700KF, instruction set [SSE2|AVX|AVX2]
Thread count: 12 physical cores, 20 logical processors, using up to 1 threads

Non-default parameters:
TimeLimit  258.1140387
MIPGap  0
MIPGapAbs  0
LogToConsole  0
Threads  1

Optimize a model with 11916 rows, 3378 columns and 67132 nonzeros (Min)
Model fingerprint: 0x8669136d
Model has 21 linear objective coefficients
Coefficient statistics:
  Matrix range     [7e-03, 2e+04]
  Objective range  [7e-03, 1e+00]
  Bounds range     [2e-01, 6e+02]
  RHS range        [8e-02, 5e+04]

Presolve removed 1156 rows and 110 columns
Presolve time: 0.04s
Presolved: 10760 rows, 3269 columns, 62667 nonzeros

Iteration    Objective       Primal Inf.    Dual Inf.      Time
       0    1.1975608e-02   5.417719e+02   0.000000e+00      0s
    3498    1.4876565e-01   0.000000e+00   0.000000e+00      0s

Solved in 3498 iterations and 0.27 seconds (0.78 work units)
Optimal objective  1.487656514e-01

User-callback calls 3642, time in user-callback 0.00 sec
